
n_res = 4;
rcap = [55, 58, 504, 470];
rtype = [1, 1, 2, 2];
n_tasks = 100;
modes =  [{1, 2, 3}, {4, 5, 6}, {7, 8, 9}, {10, 11, 12}, {13, 14, 15}, {16, 17, 18}, {19, 20, 21}, {22, 23, 24}, {25, 26, 27}, {28, 29, 30}, {31, 32, 33}, {34, 35, 36}, {37, 38, 39}, {40, 41, 42}, {43, 44, 45}, {46, 47, 48}, {49, 50, 51}, {52, 53, 54}, {55, 56, 57}, {58, 59, 60}, {61, 62, 63}, {64, 65, 66}, {67, 68, 69}, {70, 71, 72}, {73, 74, 75}, {76, 77, 78}, {79, 80, 81}, {82, 83, 84}, {85, 86, 87}, {88, 89, 90}, {91, 92, 93}, {94, 95, 96}, {97, 98, 99}, {100, 101, 102}, {103, 104, 105}, {106, 107, 108}, {109, 110, 111}, {112, 113, 114}, {115, 116, 117}, {118, 119, 120}, {121, 122, 123}, {124, 125, 126}, {127, 128, 129}, {130, 131, 132}, {133, 134, 135}, {136, 137, 138}, {139, 140, 141}, {142, 143, 144}, {145, 146, 147}, {148, 149, 150}, {151, 152, 153}, {154, 155, 156}, {157, 158, 159}, {160, 161, 162}, {163, 164, 165}, {166, 167, 168}, {169, 170, 171}, {172, 173, 174}, {175, 176, 177}, {178, 179, 180}, {181, 182, 183}, {184, 185, 186}, {187, 188, 189}, {190, 191, 192}, {193, 194, 195}, {196, 197, 198}, {199, 200, 201}, {202, 203, 204}, {205, 206, 207}, {208, 209, 210}, {211, 212, 213}, {214, 215, 216}, {217, 218, 219}, {220, 221, 222}, {223, 224, 225}, {226, 227, 228}, {229, 230, 231}, {232, 233, 234}, {235, 236, 237}, {238, 239, 240}, {241, 242, 243}, {244, 245, 246}, {247, 248, 249}, {250, 251, 252}, {253, 254, 255}, {256, 257, 258}, {259, 260, 261}, {262, 263, 264}, {265, 266, 267}, {268, 269, 270}, {271, 272, 273}, {274, 275, 276}, {277, 278, 279}, {280, 281, 282}, {283, 284, 285}, {286, 287, 288}, {289, 290, 291}, {292, 293, 294}, {295, 296, 297}, {298, 299, 300}];
succ =  [{22, 21, 18, 13, 8}, {26, 18, 13, 7}, {25, 22, 20, 19, 16, 13, 12}, {21, 19, 16, 13}, {25, 22, 14, 12}, {29, 25, 23, 13}, {28, 19, 10}, {24, 19, 16}, {25, 19, 16}, {27, 25, 16}, {29, 23, 19}, {40, 33, 29, 27, 24}, {28, 27, 24}, {35, 30, 29, 28, 27}, {40, 35, 19}, {40, 35, 34, 33, 32, 31, 30, 29}, {40, 35, 34, 33, 32, 31, 30, 29}, {35, 19}, {34, 33, 30, 27}, {34, 33, 30, 27}, {30, 27, 26}, {49, 43, 35, 34, 33, 32, 30}, {49, 40, 35, 34, 31, 30}, {49, 43, 35, 34, 32, 30}, {49, 40, 35, 32, 30}, {49, 43, 41, 38, 37, 36, 33}, {49, 32, 31}, {49, 47, 44, 43, 41, 40, 38, 33}, {49, 43, 41, 39, 38, 37, 36}, {42, 41, 39, 38, 37, 36}, {54, 47, 43, 42, 41, 39, 38, 37}, {60, 54, 52, 51, 42, 41, 38}, {54, 51, 48, 46, 45, 42, 39}, {54, 52, 51, 48, 41, 38}, {60, 51, 47, 45, 42, 41}, {57, 54, 52, 51, 47, 46, 45}, {59, 57, 53, 52, 48, 45, 44}, {68, 57, 46, 45}, {69, 60, 59, 57, 56, 55, 53, 52, 50}, {61, 56, 55, 53, 52, 48}, {68, 58, 50, 46}, {71, 69, 65, 62, 61, 58, 57, 56, 53}, {66, 65, 59, 57, 56, 48}, {69, 68, 65, 62, 56, 55, 50}, {69, 65, 62, 58, 56, 50}, {65, 63, 62, 59, 56, 55, 53}, {80, 71, 69, 68, 65, 64, 63, 58, 53}, {78, 74, 72, 71, 69, 62, 60}, {80, 69, 65, 64, 53}, {75, 72, 71, 70, 67, 66, 64, 61}, {78, 75, 74, 71, 70, 69, 67, 66, 65}, {80, 78, 70, 68, 65, 63, 58}, {78, 77, 75, 74, 72, 67, 66}, {78, 75, 74, 66, 65, 64}, {86, 80, 78, 76, 74, 72, 71}, {80, 78, 75, 67, 64}, {78, 70, 63}, {100, 88, 86, 85, 83, 77, 76, 75, 74, 73}, {86, 85, 83, 80, 75, 74, 71}, {86, 85, 80, 77, 73, 70}, {86, 85, 84, 83, 82, 80, 79, 78, 73}, {100, 75, 64}, {86, 85, 83, 77, 75, 74, 73}, {88, 87, 86, 85, 84, 83, 81, 77}, {100, 88, 85, 84, 83, 82, 79, 73}, {93, 91, 88, 86, 85, 82, 79, 76}, {100, 92, 90, 88, 84, 83, 73}, {92, 91, 88, 87, 84, 79, 77}, {90, 86, 85, 83, 81, 79}, {88, 83, 82, 76}, {88, 87, 79, 77}, {92, 85, 83, 81}, {99, 93, 89, 87, 81}, {97, 92, 81, 79}, {97, 90, 84, 79}, {96, 92, 90, 87, 84}, {99, 97, 89, 82}, {99, 97, 95, 91, 88}, {99, 96, 94, 89}, {100, 97, 96, 95}, {95, 94, 91}, {96, 95, 90}, {93, 89}, {99, 95, 94}, {99, 97, 95}, {94, 92}, {97, 95}, {96, 94}, {98}, {94}, {96}, {95}, {94}, {}, {}, {}, {}, {}, {}, {}];
n_opt = 300;
dur = [2, 3, 6, 1, 7, 9, 1, 4, 9, 1, 2, 4, 2, 6, 9, 1, 2, 3, 3, 4, 5, 1, 6, 8, 3, 8, 9, 2, 4, 10, 3, 4, 6, 1, 8, 9, 4, 6, 9, 2, 3, 6, 1, 7, 9, 8, 9, 10, 6, 7, 10, 3, 9, 10, 5, 6, 10, 1, 2, 3, 1, 7, 9, 3, 5, 8, 3, 9, 10, 3, 6, 9, 4, 5, 6, 1, 3, 8, 8, 9, 10, 2, 4, 10, 1, 2, 6, 1, 2, 6, 2, 3, 7, 1, 2, 9, 4, 7, 8, 7, 9, 10, 6, 8, 9, 1, 2, 7, 1, 5, 6, 2, 3, 9, 7, 8, 10, 3, 7, 8, 1, 5, 6, 3, 7, 8, 5, 6, 10, 7, 9, 10, 1, 2, 6, 3, 4, 6, 1, 2, 8, 3, 4, 10, 6, 8, 9, 3, 4, 10, 2, 3, 4, 6, 9, 10, 3, 6, 9, 1, 2, 5, 5, 6, 8, 4, 5, 10, 5, 9, 10, 1, 6, 9, 1, 4, 10, 1, 4, 5, 3, 4, 7, 4, 5, 9, 3, 8, 9, 4, 5, 10, 5, 6, 7, 6, 7, 8, 2, 4, 8, 1, 3, 6, 1, 3, 6, 1, 6, 7, 1, 3, 9, 2, 3, 6, 1, 3, 9, 1, 2, 10, 3, 4, 5, 4, 5, 10, 1, 3, 4, 2, 7, 8, 2, 3, 7, 5, 8, 9, 2, 6, 8, 7, 8, 9, 3, 5, 9, 6, 7, 10, 4, 6, 10, 6, 7, 10, 4, 5, 9, 2, 3, 10, 2, 4, 10, 7, 8, 9, 5, 6, 9, 7, 8, 9, 4, 8, 9, 2, 4, 7, 8, 9, 10, 1, 3, 7, 4, 5, 9, 4, 5, 10, 1, 3, 7, 5, 6, 8];
rreq = [|10, 8, 8, 9, 7, 5, 6, 4, 3, 8, 8, 6, 5, 4, 2, 2, 2, 1, 6, 6, 6, 7, 6, 4, 3, 2, 2, 4, 3, 3, 7, 5, 4, 5, 4, 4, 2, 2, 2, 7, 5, 3, 4, 4, 2, 8, 4, 4, 7, 6, 6, 8, 7, 6, 7, 6, 3, 4, 3, 3, 7, 6, 6, 7, 3, 2, 8, 7, 7, 10, 5, 3, 6, 4, 4, 8, 7, 5, 6, 6, 6, 1, 1, 1, 4, 3, 2, 10, 6, 3, 6, 5, 4, 5, 5, 5, 7, 5, 5, 4, 4, 3, 9, 9, 9, 5, 5, 4, 5, 4, 3, 9, 5, 4, 9, 8, 8, 7, 6, 6, 7, 4, 3, 4, 2, 1, 8, 6, 6, 3, 3, 1, 10, 8, 8, 6, 2, 2, 7, 6, 6, 8, 7, 7, 7, 4, 1, 8, 7, 5, 8, 6, 4, 8, 4, 2, 7, 7, 5, 7, 5, 1, 7, 7, 5, 6, 5, 4, 5, 3, 3, 8, 6, 5, 9, 9, 8, 7, 5, 3, 3, 3, 3, 8, 8, 8, 7, 7, 6, 8, 6, 6, 9, 7, 7, 6, 3, 1, 8, 7, 5, 6, 5, 2, 5, 5, 4, 7, 3, 2, 7, 5, 5, 7, 6, 4, 6, 5, 4, 7, 7, 7, 6, 4, 4, 5, 3, 3, 8, 6, 5, 5, 5, 5, 8, 7, 7, 9, 7, 4, 7, 7, 6, 5, 5, 4, 8, 8, 8, 6, 6, 5, 6, 5, 5, 10, 8, 6, 8, 8, 7, 8, 7, 7, 9, 8, 8, 7, 5, 2, 5, 5, 3, 9, 7, 1, 6, 4, 2, 7, 6, 4, 8, 8, 8, 7, 5, 4, 7, 6, 5, 4, 3, 3, 5, 5, 5, 7, 7, 4
 |7, 5, 4, 8, 7, 6, 9, 9, 7, 7, 7, 3, 3, 3, 1, 7, 4, 2, 10, 9, 9, 9, 9, 9, 5, 5, 3, 8, 7, 7, 7, 5, 4, 6, 4, 3, 9, 8, 8, 10, 7, 6, 7, 5, 2, 6, 4, 3, 6, 6, 2, 4, 3, 3, 7, 6, 6, 1, 1, 1, 8, 7, 7, 1, 1, 1, 1, 1, 1, 6, 5, 4, 10, 8, 8, 5, 5, 2, 6, 5, 4, 6, 4, 4, 9, 7, 7, 9, 6, 2, 4, 3, 3, 5, 5, 3, 8, 6, 4, 2, 2, 2, 9, 6, 4, 4, 3, 1, 9, 9, 9, 6, 4, 4, 3, 2, 1, 9, 6, 5, 7, 7, 7, 8, 7, 6, 8, 7, 7, 6, 6, 5, 7, 5, 4, 3, 2, 1, 7, 7, 6, 5, 4, 2, 9, 8, 8, 7, 6, 6, 8, 6, 6, 8, 8, 8, 7, 7, 4, 9, 9, 9, 4, 3, 2, 6, 6, 6, 7, 6, 6, 10, 8, 8, 8, 6, 5, 7, 4, 1, 9, 6, 4, 3, 2, 1, 8, 5, 5, 4, 3, 2, 8, 8, 6, 6, 5, 4, 7, 7, 7, 3, 2, 1, 7, 4, 3, 9, 6, 5, 8, 8, 7, 10, 5, 4, 8, 5, 2, 7, 7, 6, 6, 6, 6, 6, 3, 3, 6, 4, 2, 8, 7, 5, 4, 3, 2, 5, 4, 4, 5, 4, 4, 5, 4, 1, 5, 4, 4, 4, 3, 3, 6, 5, 4, 9, 9, 9, 6, 5, 3, 9, 5, 4, 7, 7, 7, 4, 4, 3, 8, 7, 7, 9, 6, 6, 9, 6, 5, 10, 10, 10, 10, 10, 10, 5, 3, 1, 7, 5, 5, 5, 3, 1, 8, 6, 5, 7, 7, 5
 |4, 4, 4, 6, 5, 4, 9, 6, 5, 8, 8, 5, 10, 8, 6, 8, 8, 8, 9, 9, 9, 6, 4, 2, 9, 6, 3, 2, 2, 1, 6, 5, 4, 10, 9, 8, 5, 4, 3, 7, 6, 4, 8, 6, 4, 7, 5, 5, 7, 6, 6, 7, 6, 3, 9, 6, 5, 9, 7, 6, 7, 5, 5, 9, 4, 4, 7, 6, 6, 5, 2, 1, 7, 4, 2, 9, 6, 4, 5, 3, 2, 6, 4, 4, 8, 7, 6, 9, 7, 7, 8, 8, 8, 9, 7, 7, 9, 9, 9, 5, 3, 3, 10, 6, 4, 7, 6, 4, 5, 3, 3, 6, 3, 2, 7, 7, 5, 8, 6, 4, 6, 4, 2, 6, 6, 5, 4, 4, 4, 4, 2, 2, 8, 6, 5, 5, 5, 4, 9, 8, 8, 4, 2, 1, 7, 6, 6, 7, 5, 5, 8, 6, 5, 7, 5, 4, 7, 7, 7, 4, 3, 3, 8, 5, 2, 7, 4, 3, 8, 7, 5, 3, 1, 1, 7, 7, 7, 6, 6, 6, 4, 3, 3, 8, 7, 5, 10, 9, 9, 6, 4, 4, 7, 7, 7, 9, 4, 2, 8, 6, 2, 10, 8, 5, 7, 3, 2, 3, 3, 3, 10, 8, 8, 3, 1, 1, 8, 6, 5, 9, 6, 5, 10, 9, 7, 4, 4, 4, 7, 6, 6, 7, 6, 5, 10, 9, 7, 9, 6, 6, 4, 4, 4, 2, 2, 1, 9, 7, 5, 4, 4, 3, 9, 3, 3, 3, 2, 2, 6, 4, 4, 3, 3, 2, 10, 6, 4, 7, 5, 1, 10, 10, 10, 3, 3, 3, 9, 4, 1, 5, 5, 3, 5, 4, 4, 4, 3, 1, 7, 6, 5, 9, 8, 8, 6, 6, 4, 9, 8, 8
 |4, 2, 2, 9, 8, 8, 7, 4, 2, 6, 5, 5, 10, 5, 1, 7, 5, 4, 6, 3, 2, 9, 9, 9, 6, 4, 3, 7, 5, 4, 4, 4, 3, 8, 8, 6, 9, 9, 9, 5, 4, 3, 3, 2, 1, 2, 1, 1, 8, 7, 6, 5, 4, 1, 8, 7, 5, 3, 3, 3, 4, 2, 1, 7, 5, 5, 3, 2, 1, 2, 2, 2, 5, 5, 5, 10, 10, 10, 6, 4, 3, 6, 5, 4, 7, 7, 7, 6, 5, 5, 6, 4, 4, 6, 3, 3, 6, 5, 4, 5, 5, 5, 10, 8, 6, 7, 6, 4, 9, 7, 7, 4, 4, 4, 8, 6, 3, 3, 3, 2, 7, 6, 5, 8, 5, 4, 5, 3, 2, 8, 6, 4, 6, 5, 5, 1, 1, 1, 5, 4, 4, 7, 7, 7, 9, 9, 7, 2, 2, 2, 8, 8, 8, 9, 6, 2, 8, 5, 3, 3, 2, 2, 4, 4, 4, 6, 4, 2, 5, 4, 3, 3, 3, 2, 8, 8, 7, 9, 7, 7, 9, 8, 7, 10, 8, 7, 9, 7, 5, 8, 6, 4, 1, 1, 1, 4, 3, 3, 5, 5, 5, 5, 2, 1, 2, 1, 1, 4, 3, 3, 9, 8, 5, 8, 6, 3, 5, 4, 2, 6, 6, 6, 4, 2, 2, 8, 7, 6, 7, 7, 7, 2, 1, 1, 10, 8, 7, 5, 3, 2, 3, 3, 2, 9, 9, 9, 5, 4, 4, 8, 8, 8, 7, 5, 3, 10, 8, 5, 6, 6, 6, 10, 9, 8, 6, 5, 4, 5, 4, 2, 9, 8, 8, 5, 4, 2, 6, 6, 3, 8, 7, 7, 8, 8, 7, 3, 3, 3, 1, 1, 1, 7, 6, 6, 3, 3, 3, 9, 6, 6|];